metals         # System label
0              # Automatic generation
Gamma          # Generation scheme
17 17 17 
0 0 0          # Shift
