Al                                      
  0.99748016963348896     
     2.8633999999999999    0.0000000000000000    0.0000000000000000
     1.4317000000000002    2.4797771411963616    0.0000000000000000
     1.4317000000000002    0.8265923803987874    2.3379563098284502
  Al
               1
Direct
  0.0000000000000000  0.0000000000000000  0.0000000000000000

  0.00000000E+00  0.00000000E+00  0.00000000E+00
