SYSTEM = Al

ISMEAR = -5          # Wavefunction occupancies
ENCUT = 400         # what is the encut?

#LCHARG = .FALSE. # Do not write charge density to save time
LORBIT = 11

#%%%%%%%%%% PARALLELIZATION %%%%%%%%%%%%%%%%%%%%%%%
#LPLANE=T !T if num nodes << NGX,NGY,NGZ
NCORE=2 ! cores per procesor
NSIM=1  ! 
