Al             # System label
0              # Automatic generation
Gamma          # Generation scheme
25 25 25       # Sampling - in this case single gamma point only
0 0 0          # Shift
