Special k-points for band structure G-X-U-W-K-G-L
45  ! intersections 
line-mode
reciprocal
    0.0000000000     0.0000000000     0.0000000000 1    GAMMA
    0.5000000000     0.0000000000     0.5000000000 1    X 


    0.5000000000     0.0000000000     0.5000000000 1    X 
    0.6250000000     0.2500000000     0.6250000000 1    U 


    0.6250000000     0.2500000000     0.6250000000 1    U 
    0.5000000000     0.2500000000     0.7500000000 1    W


    0.5000000000     0.2500000000     0.7500000000 1    W
    0.3750000000     0.3750000000     0.7500000000 1    K 
    

    0.3750000000     0.3750000000     0.7500000000 1    K 
    0.0000000000     0.0000000000     0.0000000000 1    GAMMA


    0.0000000000     0.0000000000     0.0000000000 1    GAMMA
    0.5000000000     0.5000000000     0.5000000000 1    L 


