single atom    # System label
0              # Automatic generation
Gamma          # Generation scheme
1 1 1 
0 0 0          # Shift
