Al atom
15.0
1.0  0.0  0.0
0.0  1.0  0.0
0.0  0.0  1.0
Al
1
cartesian
0.0000  0.0000  0.0000
